period = 4;
PV = [1 0.88 0.77 0.68];

////////////////////////////////////////////////////////////////////////////////////////////////////////
hydForm = {HF1 HF2 HF3 HF4};
feedType = {natural_gas biomass electricity};  
prodTech = {SMR biomass_gasfication electrolysis}; 
prodSize = {Small Medium Large };
//prodSize = {Medium Large };
//stoSize =  {Small Medium Large };
//fuelSize = {Small Medium Large LS LM XL XLS XLM XXL XXLS XXLM XXXL XXXLS XXXLM XXXXL XXXXLS XXXXLM XXXXXL };
fuelSize = {Standard};
onsiteFuelSize = {Small};  
standFuelTech = {Standard}; 
numNode = 10; 

tranFeed = { 
<natural_gas truck      20 1    1.46 1    0 0.09 108000 24 120 1>
<Biomass     truck      20 2.55 1.46 7.32 2 0.09 55      18 8000      45> 
<electricity power_grid 20 1    1.46 1    0 0.09 1116000 24 1000 1>  
}; 

feedTranCapaMax = [5000000 35000000 50000000]; 
feedTranCapaMin = [50 50 50]; 

feedProd = { 
<natural_gas SMR 4.07>
<biomass biomass_gasfication 19.39>
<electricity electrolysis 54.5>
}; 

feedOnsiteFuel = {  
<electricity OnsiteElectrolysis 54.5> 
};

driverWage = 23;
fuelEco = 2.55;
fuelPrice = 1.16;
genEx = 8.22;
loUnloTime = 2;
maintEx = 0.0976;
speed = 55;
tranAva = 18;
tranCap = [400 4000 400 4000];
vehPurCost = [440000 880000 440000 880000];
 

hydTranCapaMax2 = [ 
2000000  
2000000
2000000  
2000000   
];
hydTranCapaMin2 = [ 
50 
50
50 
50  
];  

opePeriod = 2555; 

feedSupCapaMax = [ 
[5000000 0 50000000] 
[5000000 0 50000000] 
[5000000 0 50000000] 
[5000000 35000000 50000000] 
[5000000 0 50000000] 
[5000000 0 50000000] 
[5000000 0 50000000] 
[5000000 0 50000000]  
[5000000 35000000 50000000] 
[5000000 0 50000000] 
];

feedSupCapaMin = [ 
[0 0 0] 
[0 0 0] 
[0 0 0]
[0 0 0]
[0 0 0] 
[0 0 0] 
[0 0 0]
[0 0 0]
[0 0 0] 
[0 0 0] 
]; 

prodCapCost = [ 
[[123103616 369310850 1917508404] [123103616 369310850 1917508404] [123103616 369310850 1917508404] [135253984 398521206 1907025120]]
[[287647656 862942970 3307321817] [287647656 862942970 3307321817] [287647656 862942970 3307321817] [293722840 833670741 3352265046]] 
[[128730348 386191045 772382090] [128730348 386191045 772382090] [128730348 386191045 772382090] [134805532 400796223 817325319]]
];

prodOpeCost = [ 
[[0.457 0.307 0.161 ] [0.457 0.307 0.161 ] [0.457 0.307 0.161 ] [1.141 0.484 0.216 ]] 
[[3.17 1.897 0.887 ] [3.17 1.897 0.887 ] [3.17 1.897 0.887 ] [3.854 2.074 0.942 ]]
[[1.1 0.786 0.691 ] [1.1 0.786 0.691 ] [1.1 0.786 0.691 ] [2.058 1.397 0.825]]   
]; 
    
prodCapaMax = [ 
[[20000 75000 480000 ] [20000 75000 480000 ] [20000 75000 480000 ] [20000 75000 480000 ]] 
[[20000 75000 480000 ] [20000 75000 480000 ] [20000 75000 480000 ] [20000 75000 480000 ]]  
[[20000 75000 150000 ] [20000 75000 150000 ] [20000 75000 150000 ] [20000 75000 150000 ]]  
];  
prodCapaMin = [ 
[[10000 37500 240000 ] [10000 37500 240000 ] [10000 37500 240000 ] [10000 37500 240000 ]] 
[[10000 37500 240000 ] [10000 37500 240000 ] [10000 37500 240000 ] [10000 37500 240000 ]] 
[[10000 37500 75000 ] [10000 37500 75000 ] [10000 37500 75000 ] [10000 37500 75000 ]]
];  
//prodCapaMin = [ 
//[[50 15000 240000 ] [50 15000 240000 ] ] 
//[[50 15000 240000 ] [50 15000 240000 ] ] 
//[[50 15000 240000 ] [50 15000 240000 ] ] 
//];
//standFuelCapCost = [ 
//[[2165104 3730412 4207508 6372612 7937920 8415018 10580122 12145430 12622524 14787628 16352936 16830036 18995140 20560448 21037540 23202644 24767952 25245048] 
//[2310192 3045466 3143310 5453502 6188776 6286618 8596810 9332084 9429930 11740122 12475396 12573236 14883428 15618702 15716550 18026742 18762016 18859860]] 
//]; 

standFuelCapCost = [ 
[[4207508 ] [3143310 ] [ 4207508 ] [3143310 ] ] 
];

standFuelOpeCost = [ 
[[1.28 ] [1.45 ] [1.28 ] [ 1.45 ] ] 
];

standFuelCapaMax = [ 
[[1200] [1200] [1200] [1200] ] 
]; 

standFuelCapaMin = [ 
[[0] [0] [0] [0] ] 
]; 

//terCapaMax = [[10000 15000 75000] [15000 75000 480000]];
terCapaMax = [[5000 10000 25000] [75000 75000 480000] [75000 75000 480000] [75000 75000 480000]];
terCapaMin = [[0 5000 12500] [0 0 240000] [0 0 240000] [0 0 240000]];

onsiteFuelTech = {OnsiteElectrolysis};
onsiteFuelCapCost = [[7617636]];
onsiteFuelOpeCost = [[1.164 ]];
//onsiteFuelOpeCost = [[[4.15 2.97 1.79 1.79 ][4.15 2.97 1.79 1.79 ]]];

onsiteFuelCapaMax = [[500]];
onsiteFuelCapaMin = [[0]];
//onsiteFuelRepCost = [[0 0 0 0 ]];

//////////////////////////////////
strCapCost = [[7699111 13101476 26945482] [21999308 21999308 97370598] [29698419 29698419 124316080] [15924124 15924124 52427369]];
strOpeCost = [[12.581 6.525 1.009] [0.478 0.478 0.131] [0.478 0.478 0.131] [0.478 0.478 0.131]];

feedUti = {natural_gas coal biomass electricity commercial_natural_gas diesel};
//hydTer = {gaseous_terminal liquid_terminal};

feedReqOnsiteFulTech = [[0 0 0 54.5 0 0]];

feedReqProdTech = [
[[4.07 0 0 3.81 0 0][4.07 0 0 3.81 0 0][4.07 0 0 3.81 0 0][4.07 0 0 11.61 0 0]]
[[0 0 19.39 2.99 0.55 0][0 0 19.39 2.99 0.55 0][0 0 19.39 2.99 0.55 0][0 0 19.39 10.79 0.55 0]]
[[0 0 0 57.2 0 0][0 0 0 57.2 0 0][0 0 0 57.2 0 0][0 0 0 65 0 0]]
];
feedReqHydTer = [
[0 0 0 2.7 0 0] [0 0 0 21 0 0] [0 0 0 23.7 0 0] [0 0 0 10.5 0 0]
];

feedReqFueSta = [
[0 0 0 2.43 0 0] [0 0 0 0.37 0 0] [0 0 0 2.43 0 0] [0 0 0 0.37 0 0]
];

feedReqHydTran_2 = [
[0 0 0 0 0 0.00095] [0 0 0 0 0 0.00009] [0 0 0 0 0 0.00095] [0 0 0 0 0 0.00009]
];

feedReqOnsiteFueSta =[[0 0 0 2.43 0 0]];

upsEmiCO2 = [0.20682 0.02461 -1.605 0.0573 0.20682 0.31844];
onsitEmiProdTechCO2 = [9.21 33.527 0];
onsitEmiHydTerCO2 = [0 0 0 0 ];
//onsitEmiHydTranCO2_1 = [0.00188 0.00188 0.00188 0.00018 0.00018];
onsitEmiHydTranCO2_2 = [0.00188 0.00018 0.00188 0.00018];
onsitEmiFueStaCO2 = [0 0 0 0];

upsEmiCH4 = [0.0315 0.00117 0.00011 0 0.00498 0.01368];
onsitEmiProdTechCH4 = [0.056 0.00001 0];
onsitEmiHydTerCH4 = [0 0 0 0 ];
//onsitEmiHydTranCH4_1 = [0 0 0 0 0];
onsitEmiHydTranCH4_2 = [0 0 0 0 ];
onsitEmiFueStaCH4 = [0 0 0 0 ];

upsEmiN2O = [0.00004 0 0.00009 0 0.000004 0.000006];
onsitEmiProdTechN2O = [0 0 0];
onsitEmiHydTerN2O = [0 0 0 0 ];
//onsitEmiHydTranN2O_1 = [0 0 0 0 0];
onsitEmiHydTranN2O_2 = [0 0 0 0 ];
onsitEmiFueStaN2O = [0 0 0 0];

feedCost = [ 0.36 0.05 0.085 ]; 

ccsCapCost = 2030000; 
co2OpeCost = 0.09;
co2TranCapaMax = 5000000; 
co2TranCapaMin = 50;
co2PipCapCost = 80000; 

prodEmiCapEff = [ 
[[0.90 0.90 0.90 ] [0.90 0.90 0.90 ] [0.90 0.90 0.90 ] [0.90 0.90 0.90 ] ] 
[[0.90 0.00 0.90 ] [0.90 0.90 0.90 ] [0.90 0.90 0.90 ] [0.90 0.90 0.90 ] ]
[[0.90 0.00 0.90 ] [0.90 0.90 0.90 ] [0.90 0.90 0.90 ] [0.90 0.90 0.90 ]]  
];


co2ProcCapaMax = [ 
0 0 0 0 0 0 0 500000 0 0 ]; 
co2ProcCapaMin = [ 
0 0 0 0 0 0 0 0 0 0  ]; 

hydFuelDem = [ 
[12906 51626 154877 206503]
[6343 25374 76121 101495 ]
[3691 14763 44289 59052 ]
[3697 14790 44369 59158 ]
[2625 10499 31497 41997 ]
[2347 9388 28163 37550 ]
[2178 8712 26136 34848 ]
[2047 8189 24568 32758 ]
[1930 7720 23160 30881 ]
[1669 6675 20025 26700 ]  
]; 

distOD = [ 
[0 775 466 678 932 385 748 491 584 225  ] 
[775 0 314 404 207 994 170 801 645 1000 ] 
[466 314 0 471 435 686 304 493 557 691 ] 
[678 404 471 0 561 588 243 942 245 895  ] 
[932 207 435 561 0 1152 328 786 804 1158 ] 
[385 994 686 588 1152 0 828 866 349 600 ] 
[748 170 304 243 328 828 0 791 487 964  ] 
[491 801 493 942 786 866 791 0 943 525  ] 
[584 645 557 245 804 349 487 943 0 806  ] 
[225 1000 691 895 1158 600 964 525 806 0]   
]; 

//************************************************************************************************************************
//h2PipCapCost1 = [250782 250782 250782 10000000000000 10000000000000];
h2PipCapCost2 = [250782 10000000000000 250782 10000000000000];
h2TranCapaPipMax = 5000000;
h2TranCapaPipMin = 10000;

isProTime = 
[1 1 1 1 0 0 0 0 0 0]
;

//isPro = [ 
//[1 1 1 1]
//[1 1 1 1]
//[1 1 1 1]
//[1 1 1 1]
//[0 0 0 0]
//[0 0 0 0]
//[0 0 0 0]
//[0 0 0 0]
//[0 0 0 0]
//[0 0 0 0]
//];

isFuelStand = [ 
[1 1 1 1]
[1 1 1 1]
[1 1 1 1]
[1 1 1 1]
[1 1 1 1]
[1 1 1 1]
[1 1 1 1]
[1 1 1 1]
[1 1 1 1]
[1 1 1 1]
]; 

PVP = [
[[[0 0 0 0][0 0 0 0] [0 0 0 0]] [[0 0 0 0][0 0 0 0] [0 0 0 0]] [[0 0 0 0][0 0 0 0] [0 0 0 0]] [[0 0 0 0][0 0 0 0] [0 0 0 0]]]
[[[0 0 0 0][0 0 0 0] [0 0 0 0]] [[0 0 0 0][0 0 0 0] [0 0 0 0]] [[0 0 0 0][0 0 0 0] [0 0 0 0]] [[0 0 0 0][0 0 0 0] [0 0 0 0]]]
[[[0 0 0 0][0 0 0 0] [0 0 0 0]] [[0 0 0 0][0 0 0 0] [0 0 0 0]] [[0 0 0 0][0 0 0 0] [0 0 0 0]] [[0 0 0 0][0 0 0 0] [0 0 0 0]]]
];

PVS = [
[[0 0 0 0] [0 0 0 0] [0 0 0 0]]
[[0 0 0 0] [0 0 0 0] [0 0 0 0]]
[[0 0 0 0] [0 0 0 0] [0 0 0 0]]
[[0 0 0 0] [0 0 0 0] [0 0 0 0]]
];

PVF = [
[[[0.63 0 0 0]] [[0.63 0 0 0]] [[0.63 0 0 0]] [[0.63 0 0 0]]]
];


PVOF = [
[[0 0 0 0] ]
];


PVR = [0 0 0 0];

PVTV2 = [[1.92 1.5 1.1 0.75] [1.92 1.5 1.1 0.75 ] [1.92 1.5 1.1 0.75] [1.92 1.5 1.1 0.75]] ;

PVPC = [0 0 0 0];


period2 = 4;
numProdT0 = [
[[[0 0 0] [0 0 0] [0 0 0] [0 0 0]] [[0 0 0] [0 0 0] [0 0 0] [0 0 0]] [[0 0 0] [0 0 0] [0 0 0] [0 0 0]]]
[[[0 0 0] [0 0 0] [0 0 0] [0 0 0]] [[0 0 0] [0 0 0] [0 0 0] [0 0 0]] [[0 0 0] [0 0 0] [0 0 0] [0 0 0]]]
[[[0 0 0] [0 0 0] [0 0 0] [0 0 0]] [[0 0 0] [0 0 0] [0 0 0] [0 0 0]] [[0 0 0] [0 0 0] [0 0 0] [0 0 0]]]
[[[0 0 0] [0 0 0] [0 0 0] [0 0 0]] [[0 0 0] [0 0 0] [0 0 0] [0 0 0]] [[0 0 0] [0 0 0] [0 0 0] [0 0 0]]]
[[[0 0 0] [0 0 0] [0 0 0] [0 0 0]] [[0 0 0] [0 0 0] [0 0 0] [0 0 0]] [[0 0 0] [0 0 0] [0 0 0] [0 0 0]]]
[[[0 0 0] [0 0 0] [0 0 0] [0 0 0]] [[0 0 0] [0 0 0] [0 0 0] [0 0 0]] [[0 0 0] [0 0 0] [0 0 0] [0 0 0]]]
[[[0 0 0] [0 0 0] [0 0 0] [0 0 0]] [[0 0 0] [0 0 0] [0 0 0] [0 0 0]] [[0 0 0] [0 0 0] [0 0 0] [0 0 0]]]
[[[0 0 0] [0 0 0] [0 0 0] [0 0 0]] [[0 0 0] [0 0 0] [0 0 0] [0 0 0]] [[0 0 0] [0 0 0] [0 0 0] [0 0 0]]]
[[[0 0 0] [0 0 0] [0 0 0] [0 0 0]] [[0 0 0] [0 0 0] [0 0 0] [0 0 0]] [[0 0 0] [0 0 0] [0 0 0] [0 0 0]]]
[[[0 0 0] [0 0 0] [0 0 0] [0 0 0]] [[0 0 0] [0 0 0] [0 0 0] [0 0 0]] [[0 0 0] [0 0 0] [0 0 0] [0 0 0]]]
];

numTerT0 = [
[[0 0 0] [0 0 0] [0 0 0] [0 0 0]]
[[0 0 0] [0 0 0] [0 0 0] [0 0 0]]
[[0 0 0] [0 0 0] [0 0 0] [0 0 0]]
[[0 0 0] [0 0 0] [0 0 0] [0 0 0]]
[[0 0 0] [0 0 0] [0 0 0] [0 0 0]]
[[0 0 0] [0 0 0] [0 0 0] [0 0 0]]
[[0 0 0] [0 0 0] [0 0 0] [0 0 0]]
[[0 0 0] [0 0 0] [0 0 0] [0 0 0]]
[[0 0 0] [0 0 0] [0 0 0] [0 0 0]]
[[0 0 0] [0 0 0] [0 0 0] [0 0 0]]
];

terRateFinT0 = [
[[0 0 0] [0 0 0] [0 0 0] [0 0 0]]
[[0 0 0] [0 0 0] [0 0 0] [0 0 0]]
[[0 0 0] [0 0 0] [0 0 0] [0 0 0]]
[[0 0 0] [0 0 0] [0 0 0] [0 0 0]]
[[0 0 0] [0 0 0] [0 0 0] [0 0 0]]
[[0 0 0] [0 0 0] [0 0 0] [0 0 0]]
[[0 0 0] [0 0 0] [0 0 0] [0 0 0]]
[[0 0 0] [0 0 0] [0 0 0] [0 0 0]]
[[0 0 0] [0 0 0] [0 0 0] [0 0 0]]
[[0 0 0] [0 0 0] [0 0 0] [0 0 0]]
];

numFuelStandT0 = [
[[[0] [0] [0] [0]]]
[[[0] [0] [0] [0]]]
[[[0] [0] [0] [0]]]
[[[0] [0] [0] [0]]]
[[[0] [0] [0] [0]]]
[[[0] [0] [0] [0]]]
[[[0] [0] [0] [0]]]
[[[0] [0] [0] [0]]]
[[[0] [0] [0] [0]]]
[[[0] [0] [0] [0]]]
];

numFuelOnsiteT0 = [
[[0]]
[[0]]
[[0]]
[[0]]
[[0]]
[[0]]
[[0]]
[[0]]
[[0]]
[[0]]
];

isCO2StoResT0 =[
0
0
0
0
0
0
0
0
0
0
];

isH2Tranpip2T0 = [
[
[0 0 0 0 0 0 0 0 0 0 ]
[0 0 0 0 0 0 0 0 0 0 ]
[0 0 0 0 0 0 0 0 0 0 ]
[0 0 0 0 0 0 0 0 0 0 ]
[0 0 0 0 0 0 0 0 0 0 ]
[0 0 0 0 0 0 0 0 0 0 ]
[0 0 0 0 0 0 0 0 0 0 ]
[0 0 0 0 0 0 0 0 0 0 ]
[0 0 0 0 0 0 0 0 0 0 ]
[0 0 0 0 0 0 0 0 0 0 ]]
[
[0 0 0 0 0 0 0 0 0 0 ]
[0 0 0 0 0 0 0 0 0 0 ]
[0 0 0 0 0 0 0 0 0 0 ]
[0 0 0 0 0 0 0 0 0 0 ]
[0 0 0 0 0 0 0 0 0 0 ]
[0 0 0 0 0 0 0 0 0 0 ]
[0 0 0 0 0 0 0 0 0 0 ]
[0 0 0 0 0 0 0 0 0 0 ]
[0 0 0 0 0 0 0 0 0 0 ]
[0 0 0 0 0 0 0 0 0 0 ]]
[
[0 0 0 0 0 0 0 0 0 0 ]
[0 0 0 0 0 0 0 0 0 0 ]
[0 0 0 0 0 0 0 0 0 0 ]
[0 0 0 0 0 0 0 0 0 0 ]
[0 0 0 0 0 0 0 0 0 0 ]
[0 0 0 0 0 0 0 0 0 0 ]
[0 0 0 0 0 0 0 0 0 0 ]
[0 0 0 0 0 0 0 0 0 0 ]
[0 0 0 0 0 0 0 0 0 0 ]
[0 0 0 0 0 0 0 0 0 0 ]]
[
[0 0 0 0 0 0 0 0 0 0 ]
[0 0 0 0 0 0 0 0 0 0 ]
[0 0 0 0 0 0 0 0 0 0 ]
[0 0 0 0 0 0 0 0 0 0 ]
[0 0 0 0 0 0 0 0 0 0 ]
[0 0 0 0 0 0 0 0 0 0 ]
[0 0 0 0 0 0 0 0 0 0 ]
[0 0 0 0 0 0 0 0 0 0 ]
[0 0 0 0 0 0 0 0 0 0 ]
[0 0 0 0 0 0 0 0 0 0 ]]
];
